15 2 
2210	2210	
748	748	1016	
903	839	844	
578	237	241	
978	306	563	
665	472	790	
740	833	1295	
649	500	744	
161	815	1157	
164	618	1057	
188	693	1296	
727	510	625	
685	469	617	
462	335	360	
679	495	874	
181	971	1232	
